NAME: GP0_130.hcp
COMMENT: 
TYPE: HCP
DIMENSION: 130
EDGE_DATA_FORMAT : EDGE_LIST
EDGE_DATA_SECTION
1 2
1 65
1 66
2 1
2 3
2 67
3 2
3 4
3 68
4 3
4 5
4 69
5 4
5 6
5 70
6 5
6 7
6 71
7 6
7 8
7 72
8 7
8 9
8 73
9 8
9 10
9 74
10 9
10 11
10 75
11 10
11 12
11 76
12 11
12 13
12 77
13 12
13 14
13 78
14 13
14 15
14 79
15 14
15 16
15 80
16 15
16 17
16 81
17 16
17 18
17 82
18 17
18 19
18 83
19 18
19 20
19 84
20 19
20 21
20 85
21 20
21 22
21 86
22 21
22 23
22 87
23 22
23 24
23 88
24 23
24 25
24 89
25 24
25 26
25 90
26 25
26 27
26 91
27 26
27 28
27 92
28 27
28 29
28 93
29 28
29 30
29 94
30 29
30 31
30 95
31 30
31 32
31 96
32 31
32 33
32 97
33 32
33 34
33 98
34 33
34 35
34 99
35 34
35 36
35 100
36 35
36 37
36 101
37 36
37 38
37 102
38 37
38 39
38 103
39 38
39 40
39 104
40 39
40 41
40 105
41 40
41 42
41 106
42 41
42 43
42 107
43 42
43 44
43 108
44 43
44 45
44 109
45 44
45 46
45 110
46 45
46 47
46 111
47 46
47 48
47 112
48 47
48 49
48 113
49 48
49 50
49 114
50 49
50 51
50 115
51 50
51 52
51 116
52 51
52 53
52 117
53 52
53 54
53 118
54 53
54 55
54 119
55 54
55 56
55 120
56 55
56 57
56 121
57 56
57 58
57 122
58 57
58 59
58 123
59 58
59 60
59 124
60 59
60 61
60 125
61 60
61 62
61 126
62 61
62 63
62 127
63 62
63 64
63 128
64 63
64 65
64 129
65 1
65 64
65 130
66 1
66 68
66 129
67 2
67 69
67 130
68 3
68 66
68 70
69 4
69 67
69 71
70 5
70 68
70 72
71 6
71 69
71 73
72 7
72 70
72 74
73 8
73 71
73 75
74 9
74 72
74 76
75 10
75 73
75 77
76 11
76 74
76 78
77 12
77 75
77 79
78 13
78 76
78 80
79 14
79 77
79 81
80 15
80 78
80 82
81 16
81 79
81 83
82 17
82 80
82 84
83 18
83 81
83 85
84 19
84 82
84 86
85 20
85 83
85 87
86 21
86 84
86 88
87 22
87 85
87 89
88 23
88 86
88 90
89 24
89 87
89 91
90 25
90 88
90 92
91 26
91 89
91 93
92 27
92 90
92 94
93 28
93 91
93 95
94 29
94 92
94 96
95 30
95 93
95 97
96 31
96 94
96 98
97 32
97 95
97 99
98 33
98 96
98 100
99 34
99 97
99 101
100 35
100 98
100 102
101 36
101 99
101 103
102 37
102 100
102 104
103 38
103 101
103 105
104 39
104 102
104 106
105 40
105 103
105 107
106 41
106 104
106 108
107 42
107 105
107 109
108 43
108 106
108 110
109 44
109 107
109 111
110 45
110 108
110 112
111 46
111 109
111 113
112 47
112 110
112 114
113 48
113 111
113 115
114 49
114 112
114 116
115 50
115 113
115 117
116 51
116 114
116 118
117 52
117 115
117 119
118 53
118 116
118 120
119 54
119 117
119 121
120 55
120 118
120 122
121 56
121 119
121 123
122 57
122 120
122 124
123 58
123 121
123 125
124 59
124 122
124 126
125 60
125 123
125 127
126 61
126 124
126 128
127 62
127 125
127 129
128 63
128 126
128 130
129 64
129 66
129 127
130 65
130 67
130 128
1 73
73 1
-1
EOF